19 23 29 43 64 18 97 85 28 22 5 78 62 70 53 59 38 35 66 9 44 68 57 56 71 34 50 58 54 49 61 65 30 45 8 4 11 74 69 81 16 37 98 31 79 32 88 20 14 24 6 15 77 2 82 10 21 63 40 99 52 75 55 87 96 76 0 80 93 95 46 12 72 1 47 60 73 67 27 84 92 7 42 25 89 94 86 17 90 13 3 41 36 91 48 26 51 83 33 39 

